
n_res = 6;
rcap = [84, 83, 80, 84, 1440, 1287];
rtype = [1, 1, 1, 1, 2, 2];
n_tasks = 100;
modes =  [{1, 2, 3}, {4, 5, 6}, {7, 8, 9}, {10, 11, 12}, {13, 14, 15}, {16, 17, 18}, {19, 20, 21}, {22, 23, 24}, {25, 26, 27}, {28, 29, 30}, {31, 32, 33}, {34, 35, 36}, {37, 38, 39}, {40, 41, 42}, {43, 44, 45}, {46, 47, 48}, {49, 50, 51}, {52, 53, 54}, {55, 56, 57}, {58, 59, 60}, {61, 62, 63}, {64, 65, 66}, {67, 68, 69}, {70, 71, 72}, {73, 74, 75}, {76, 77, 78}, {79, 80, 81}, {82, 83, 84}, {85, 86, 87}, {88, 89, 90}, {91, 92, 93}, {94, 95, 96}, {97, 98, 99}, {100, 101, 102}, {103, 104, 105}, {106, 107, 108}, {109, 110, 111}, {112, 113, 114}, {115, 116, 117}, {118, 119, 120}, {121, 122, 123}, {124, 125, 126}, {127, 128, 129}, {130, 131, 132}, {133, 134, 135}, {136, 137, 138}, {139, 140, 141}, {142, 143, 144}, {145, 146, 147}, {148, 149, 150}, {151, 152, 153}, {154, 155, 156}, {157, 158, 159}, {160, 161, 162}, {163, 164, 165}, {166, 167, 168}, {169, 170, 171}, {172, 173, 174}, {175, 176, 177}, {178, 179, 180}, {181, 182, 183}, {184, 185, 186}, {187, 188, 189}, {190, 191, 192}, {193, 194, 195}, {196, 197, 198}, {199, 200, 201}, {202, 203, 204}, {205, 206, 207}, {208, 209, 210}, {211, 212, 213}, {214, 215, 216}, {217, 218, 219}, {220, 221, 222}, {223, 224, 225}, {226, 227, 228}, {229, 230, 231}, {232, 233, 234}, {235, 236, 237}, {238, 239, 240}, {241, 242, 243}, {244, 245, 246}, {247, 248, 249}, {250, 251, 252}, {253, 254, 255}, {256, 257, 258}, {259, 260, 261}, {262, 263, 264}, {265, 266, 267}, {268, 269, 270}, {271, 272, 273}, {274, 275, 276}, {277, 278, 279}, {280, 281, 282}, {283, 284, 285}, {286, 287, 288}, {289, 290, 291}, {292, 293, 294}, {295, 296, 297}, {298, 299, 300}];
succ =  [{18, 17, 13, 10, 9}, {26, 24, 19, 18, 17, 9}, {28, 26, 21, 19, 18, 16, 13}, {29, 26, 25, 24, 17, 9}, {29, 26, 25, 24, 17, 9}, {48, 37, 29, 28, 27, 26, 25, 24, 23, 22, 21, 16}, {28, 26, 23, 21, 18, 16}, {48, 37, 29, 28, 27, 26, 23, 22, 21, 16}, {48, 37, 32, 28, 27, 23, 22, 21, 16}, {37, 32, 28, 26, 23, 19}, {37, 32, 27, 23, 21, 16}, {48, 41, 37, 34, 32, 31, 29, 28, 27, 23}, {48, 41, 34, 29, 27, 25, 23, 22}, {50, 48, 38, 34, 32, 30, 29, 27, 23}, {48, 41, 34, 29, 26, 23}, {50, 41, 36, 34, 33, 31, 30}, {50, 48, 30, 28, 23}, {50, 48, 41, 37, 32, 29, 25}, {50, 48, 45, 41, 36, 34, 33, 31}, {45, 42, 41, 36, 34, 33, 32, 31}, {45, 44, 43, 42, 41, 40, 38, 36, 35, 34}, {50, 45, 43, 42, 40, 31}, {45, 42, 40, 39, 36, 35}, {50, 44, 35, 33, 32}, {59, 54, 44, 43, 42, 40, 38, 35}, {59, 43, 42, 40, 39, 38, 35}, {59, 54, 46, 45, 44, 43, 42, 40}, {44, 38, 35, 33}, {59, 52, 46, 44, 33}, {59, 54, 53, 46, 45, 42, 39}, {54, 47, 44, 38, 35}, {65, 59, 57, 54, 53, 52, 51, 49, 46}, {65, 62, 54, 49, 43, 40}, {57, 54, 53, 51, 49, 47, 46}, {66, 65, 57, 53, 51, 49, 46}, {65, 59, 57, 55, 54, 53, 46}, {62, 59, 57, 54, 53, 51, 47}, {66, 65, 62, 57, 53, 52, 51}, {65, 57, 49, 44}, {57, 53, 51, 47}, {66, 65, 64, 53, 51}, {66, 62, 56, 51, 49}, {57, 53, 51}, {72, 67, 66, 62, 56, 51}, {68, 65, 57, 56, 55, 52}, {74, 72, 68, 67, 64, 62, 60, 58, 56}, {75, 72, 69, 68, 67, 66, 64, 56, 55}, {68, 67, 58, 57, 56, 55}, {75, 74, 72, 68, 67, 58, 55}, {72, 64, 59, 56, 55}, {75, 74, 68, 58, 55}, {79, 75, 74, 72, 70, 60, 58}, {72, 69, 67, 60, 56}, {69, 68, 60, 56}, {79, 70, 63, 60}, {79, 76, 70, 63, 61}, {79, 76, 72, 64, 63}, {69, 63, 61}, {78, 75, 69, 66}, {85, 84, 83, 82, 77, 76, 73, 71}, {85, 84, 83, 82, 80, 78, 77, 71}, {85, 83, 78, 69}, {85, 84, 82, 80, 78, 71}, {85, 84, 82, 77, 73, 71}, {85, 82, 80, 77, 73, 71}, {89, 86, 85, 84, 83, 81, 76}, {85, 84, 82, 80, 71}, {89, 86, 85, 82, 81, 80, 77}, {89, 86, 84, 82, 80, 73}, {93, 92, 91, 89, 88, 86, 82}, {100, 91, 89, 87, 86, 81}, {100, 89, 88, 82, 81}, {100, 91, 88, 87, 81}, {93, 91, 89, 85, 84}, {100, 93, 92, 91, 88, 85}, {100, 91, 80}, {100, 99, 98, 93, 92, 91, 90}, {100, 99, 98, 97, 93, 91, 90}, {98, 97, 93, 92, 87}, {92, 88, 87}, {98, 97, 93, 92, 90}, {98, 97, 96, 87}, {100, 99, 97, 96, 95, 92}, {100, 98, 97, 92, 90}, {99, 98, 96, 90}, {99, 97, 96, 94}, {99, 90}, {98, 97, 96}, {96, 95, 94}, {95, 94}, {95, 94}, {94}, {96}, {}, {}, {}, {}, {}, {}, {}];
n_opt = 300;
dur = [4, 9, 15, 3, 4, 10, 22, 28, 30, 12, 15, 30, 3, 8, 22, 6, 18, 29, 8, 20, 23, 9, 10, 22, 9, 16, 22, 5, 6, 13, 10, 12, 23, 13, 14, 28, 2, 4, 15, 9, 17, 22, 11, 27, 28, 1, 11, 16, 1, 9, 30, 3, 10, 13, 12, 16, 24, 2, 4, 29, 20, 24, 25, 8, 21, 26, 2, 5, 25, 6, 13, 15, 3, 9, 29, 7, 8, 18, 12, 21, 26, 4, 9, 21, 5, 13, 19, 12, 17, 22, 11, 17, 30, 7, 11, 27, 1, 16, 21, 17, 18, 20, 5, 17, 26, 13, 26, 30, 4, 6, 15, 18, 22, 25, 4, 12, 27, 5, 9, 19, 1, 24, 27, 6, 20, 29, 8, 9, 11, 4, 19, 26, 12, 13, 19, 18, 28, 29, 2, 8, 16, 4, 15, 19, 4, 9, 13, 3, 6, 11, 15, 20, 26, 1, 7, 15, 16, 18, 21, 2, 23, 27, 13, 25, 28, 8, 24, 29, 6, 7, 25, 8, 12, 23, 20, 24, 26, 1, 7, 29, 5, 12, 24, 4, 22, 26, 2, 19, 27, 11, 12, 20, 4, 14, 19, 14, 18, 25, 7, 8, 25, 16, 25, 26, 7, 13, 21, 5, 12, 16, 7, 22, 26, 9, 19, 20, 20, 22, 29, 2, 20, 24, 14, 27, 30, 1, 15, 25, 1, 2, 30, 5, 10, 16, 11, 23, 24, 6, 19, 25, 24, 25, 29, 6, 10, 23, 3, 12, 26, 16, 19, 22, 10, 15, 24, 22, 25, 28, 14, 21, 30, 11, 14, 19, 4, 5, 25, 16, 18, 26, 7, 14, 27, 9, 10, 22, 9, 22, 28, 4, 26, 30, 4, 6, 23, 3, 4, 6, 7, 13, 15, 24, 28, 30, 6, 9, 11, 3, 4, 25];
rreq = [|14, 10, 10, 25, 16, 14, 26, 24, 22, 14, 10, 7, 17, 16, 16, 16, 16, 14, 11, 9, 7, 16, 15, 15, 18, 14, 13, 18, 18, 16, 19, 15, 2, 24, 19, 14, 15, 14, 11, 8, 5, 3, 17, 17, 13, 25, 15, 9, 19, 7, 3, 21, 20, 14, 28, 26, 18, 20, 14, 8, 18, 15, 9, 28, 21, 14, 30, 24, 23, 13, 11, 7, 12, 10, 8, 20, 16, 14, 20, 15, 12, 27, 22, 18, 10, 10, 9, 24, 24, 23, 17, 17, 16, 17, 14, 13, 17, 14, 11, 20, 19, 19, 23, 22, 18, 24, 23, 23, 15, 11, 10, 5, 3, 3, 25, 20, 17, 12, 6, 4, 6, 3, 3, 18, 15, 14, 18, 10, 8, 6, 6, 6, 12, 11, 8, 19, 18, 15, 10, 8, 7, 24, 11, 1, 18, 15, 6, 26, 24, 20, 25, 18, 15, 14, 13, 8, 23, 23, 23, 25, 15, 4, 26, 26, 26, 13, 13, 11, 12, 11, 10, 13, 9, 4, 19, 18, 15, 20, 15, 9, 10, 9, 7, 22, 21, 20, 24, 22, 15, 14, 14, 14, 28, 21, 18, 28, 22, 16, 18, 18, 17, 25, 15, 10, 24, 21, 12, 15, 11, 10, 1, 1, 1, 10, 8, 8, 20, 9, 5, 15, 9, 5, 13, 12, 12, 15, 12, 6, 10, 8, 5, 17, 15, 15, 10, 6, 3, 25, 24, 19, 18, 13, 5, 23, 17, 14, 21, 12, 10, 11, 6, 3, 23, 17, 13, 6, 5, 4, 24, 20, 16, 24, 15, 15, 21, 15, 9, 2, 2, 2, 16, 11, 11, 21, 18, 8, 10, 10, 5, 19, 19, 19, 20, 17, 13, 18, 17, 11, 16, 14, 11, 11, 8, 6, 8, 5, 4, 17, 12, 5
 |26, 24, 21, 22, 13, 4, 22, 13, 5, 2, 2, 2, 8, 7, 7, 25, 24, 22, 29, 18, 13, 16, 15, 12, 7, 7, 5, 21, 20, 18, 15, 10, 6, 25, 18, 9, 23, 12, 11, 21, 21, 21, 20, 12, 2, 28, 28, 24, 25, 20, 13, 19, 18, 8, 15, 12, 11, 11, 8, 8, 10, 9, 9, 15, 12, 9, 22, 20, 17, 29, 24, 18, 17, 12, 9, 27, 23, 16, 11, 11, 10, 26, 23, 19, 25, 18, 16, 7, 6, 4, 18, 14, 12, 23, 16, 7, 23, 20, 17, 17, 14, 6, 4, 4, 4, 20, 15, 11, 12, 10, 6, 20, 15, 13, 8, 6, 6, 29, 29, 29, 10, 6, 2, 23, 20, 15, 25, 22, 19, 23, 22, 18, 26, 23, 19, 22, 22, 17, 19, 12, 11, 21, 17, 5, 23, 20, 16, 17, 14, 13, 21, 13, 4, 24, 16, 16, 24, 14, 8, 18, 16, 10, 5, 4, 2, 14, 12, 9, 16, 9, 5, 27, 14, 4, 18, 10, 5, 18, 10, 6, 25, 14, 9, 30, 21, 12, 20, 19, 19, 23, 19, 17, 25, 21, 18, 22, 17, 13, 22, 10, 3, 22, 16, 7, 22, 12, 6, 21, 21, 21, 7, 5, 4, 27, 25, 21, 26, 22, 11, 25, 24, 24, 14, 14, 14, 20, 10, 8, 20, 19, 18, 19, 17, 16, 22, 16, 10, 23, 13, 9, 25, 24, 16, 14, 13, 9, 10, 9, 9, 10, 7, 2, 16, 15, 15, 23, 14, 3, 18, 16, 13, 16, 15, 8, 16, 15, 14, 12, 9, 6, 20, 16, 13, 6, 4, 2, 18, 18, 11, 4, 3, 1, 8, 8, 6, 20, 20, 20, 16, 12, 5, 12, 10, 6, 20, 11, 5, 8, 8, 8
 |4, 4, 4, 16, 13, 10, 11, 11, 8, 20, 9, 7, 22, 22, 22, 18, 17, 16, 17, 15, 8, 24, 22, 15, 14, 13, 12, 15, 9, 9, 10, 9, 6, 21, 18, 15, 16, 8, 6, 15, 13, 6, 20, 18, 18, 18, 17, 10, 18, 9, 6, 11, 11, 11, 19, 18, 15, 12, 9, 6, 24, 16, 7, 26, 24, 22, 11, 9, 8, 19, 13, 3, 6, 5, 5, 16, 14, 11, 19, 17, 6, 25, 24, 22, 30, 27, 24, 18, 16, 15, 28, 15, 10, 29, 27, 27, 29, 25, 25, 5, 3, 3, 29, 28, 27, 19, 15, 13, 8, 5, 1, 19, 19, 19, 25, 24, 21, 16, 11, 10, 27, 23, 16, 25, 20, 18, 13, 13, 6, 19, 14, 10, 16, 9, 3, 22, 21, 20, 13, 7, 4, 5, 5, 1, 2, 2, 2, 5, 4, 4, 12, 11, 10, 15, 11, 11, 24, 23, 22, 25, 22, 18, 28, 27, 25, 16, 14, 13, 8, 5, 3, 20, 17, 7, 10, 8, 6, 16, 16, 15, 25, 24, 20, 17, 12, 8, 30, 28, 27, 27, 25, 19, 19, 16, 8, 21, 21, 17, 23, 13, 6, 7, 6, 5, 19, 19, 18, 13, 12, 11, 14, 12, 9, 14, 12, 7, 20, 20, 20, 30, 27, 24, 27, 14, 13, 26, 20, 18, 20, 18, 13, 22, 17, 11, 23, 22, 20, 27, 20, 17, 17, 12, 8, 20, 13, 11, 14, 14, 14, 22, 22, 21, 4, 4, 2, 26, 15, 10, 25, 20, 19, 25, 21, 18, 16, 12, 11, 21, 13, 8, 28, 28, 28, 18, 18, 15, 27, 14, 8, 12, 11, 10, 24, 23, 23, 14, 14, 12, 23, 21, 11, 13, 9, 5, 19, 16, 15, 6, 4, 4
 |24, 14, 12, 28, 26, 21, 18, 17, 15, 23, 19, 14, 29, 22, 13, 25, 17, 10, 16, 13, 13, 17, 13, 11, 10, 5, 2, 27, 20, 18, 18, 12, 7, 10, 9, 9, 13, 7, 7, 18, 10, 8, 6, 5, 5, 25, 13, 7, 12, 11, 10, 24, 20, 16, 13, 8, 6, 17, 12, 9, 16, 10, 1, 25, 21, 19, 24, 22, 19, 14, 12, 6, 24, 22, 18, 6, 5, 4, 18, 17, 15, 17, 14, 9, 9, 5, 4, 26, 20, 7, 28, 17, 14, 26, 25, 24, 28, 23, 22, 26, 23, 19, 23, 14, 14, 23, 22, 18, 29, 20, 14, 24, 19, 17, 6, 6, 4, 14, 12, 10, 19, 17, 9, 21, 20, 20, 13, 6, 2, 23, 16, 10, 24, 21, 13, 6, 4, 3, 12, 8, 3, 20, 14, 11, 25, 15, 9, 6, 6, 6, 25, 19, 17, 26, 22, 17, 20, 13, 10, 17, 17, 14, 17, 14, 13, 5, 5, 3, 17, 15, 15, 24, 22, 16, 22, 21, 19, 5, 3, 1, 14, 8, 7, 19, 18, 18, 14, 7, 4, 28, 23, 19, 13, 11, 11, 23, 16, 8, 17, 15, 15, 28, 17, 15, 24, 21, 19, 17, 16, 16, 29, 28, 27, 22, 22, 18, 14, 11, 8, 25, 21, 21, 12, 12, 10, 18, 15, 8, 10, 8, 5, 28, 11, 9, 26, 21, 19, 27, 24, 21, 18, 14, 8, 18, 13, 8, 19, 14, 11, 23, 17, 7, 25, 21, 11, 12, 9, 8, 1, 1, 1, 24, 22, 17, 16, 16, 14, 30, 29, 29, 11, 10, 7, 22, 18, 11, 26, 25, 25, 9, 4, 1, 29, 24, 17, 20, 20, 10, 15, 9, 7, 19, 17, 15, 17, 14, 11, 15, 14, 13
 |24, 21, 19, 26, 25, 24, 26, 19, 18, 17, 15, 13, 27, 16, 13, 23, 22, 21, 1, 1, 1, 20, 18, 17, 5, 3, 3, 14, 14, 13, 26, 19, 9, 23, 16, 12, 27, 19, 16, 15, 9, 4, 21, 19, 19, 20, 18, 11, 21, 13, 11, 18, 9, 8, 25, 25, 25, 29, 24, 20, 22, 22, 19, 10, 8, 4, 16, 15, 14, 26, 25, 19, 21, 18, 17, 29, 12, 11, 23, 20, 15, 25, 25, 20, 11, 10, 9, 12, 7, 5, 13, 10, 9, 29, 25, 24, 26, 25, 25, 15, 14, 10, 29, 25, 23, 28, 27, 27, 16, 11, 8, 19, 17, 8, 18, 15, 6, 19, 13, 5, 26, 25, 25, 23, 16, 10, 11, 7, 1, 10, 5, 4, 22, 18, 15, 28, 18, 17, 26, 25, 20, 30, 29, 28, 6, 6, 5, 24, 21, 20, 14, 13, 11, 17, 14, 14, 18, 15, 12, 13, 12, 11, 19, 18, 17, 6, 5, 3, 26, 24, 21, 24, 21, 16, 19, 18, 17, 18, 14, 7, 6, 5, 5, 25, 18, 17, 20, 15, 10, 25, 23, 20, 18, 9, 8, 14, 8, 5, 14, 11, 5, 9, 9, 4, 9, 6, 3, 14, 14, 14, 18, 16, 14, 21, 17, 16, 27, 18, 15, 20, 14, 9, 15, 8, 7, 14, 11, 8, 23, 14, 3, 23, 14, 12, 15, 9, 7, 25, 21, 18, 27, 17, 11, 23, 20, 20, 26, 24, 23, 16, 9, 4, 29, 22, 22, 18, 13, 6, 23, 19, 15, 8, 6, 5, 4, 4, 4, 27, 21, 16, 4, 3, 3, 29, 26, 25, 24, 19, 12, 5, 5, 5, 19, 16, 8, 26, 25, 24, 27, 23, 23, 24, 15, 8, 8, 4, 3, 13, 12, 11
 |10, 9, 9, 21, 20, 20, 19, 14, 10, 14, 11, 7, 21, 17, 16, 25, 23, 14, 3, 3, 2, 3, 2, 2, 23, 21, 7, 26, 21, 17, 23, 21, 10, 15, 11, 10, 16, 11, 8, 21, 10, 9, 23, 19, 13, 30, 20, 6, 18, 11, 9, 24, 14, 4, 13, 10, 8, 9, 6, 6, 14, 11, 9, 15, 14, 7, 15, 13, 11, 21, 21, 21, 21, 16, 8, 16, 14, 12, 11, 7, 6, 21, 18, 14, 17, 16, 15, 28, 14, 6, 30, 23, 22, 20, 14, 9, 13, 11, 10, 22, 15, 10, 17, 12, 6, 14, 14, 13, 25, 24, 16, 24, 23, 19, 9, 9, 8, 26, 21, 10, 14, 13, 9, 20, 19, 19, 23, 20, 19, 6, 5, 3, 22, 18, 11, 29, 26, 21, 15, 13, 11, 13, 13, 9, 25, 22, 19, 16, 10, 9, 10, 7, 5, 20, 20, 20, 10, 6, 5, 3, 1, 1, 13, 9, 9, 25, 23, 17, 27, 21, 20, 21, 12, 8, 21, 18, 15, 9, 6, 4, 16, 7, 2, 13, 12, 7, 15, 12, 10, 10, 7, 7, 30, 30, 30, 27, 23, 19, 17, 17, 5, 29, 27, 24, 19, 16, 5, 18, 17, 17, 22, 16, 14, 23, 17, 12, 3, 3, 3, 23, 20, 18, 21, 9, 8, 11, 11, 8, 18, 15, 11, 17, 13, 7, 14, 11, 4, 22, 22, 22, 22, 19, 15, 19, 18, 17, 24, 20, 15, 12, 11, 10, 29, 23, 23, 21, 19, 8, 14, 10, 8, 12, 12, 10, 17, 11, 10, 21, 20, 19, 13, 13, 13, 20, 11, 10, 16, 15, 12, 23, 15, 7, 15, 13, 9, 14, 13, 12, 26, 13, 9, 11, 9, 2, 14, 11, 6, 16, 14, 14|];